500
1000
495
494
493
493
492
492
491
490
490
490
490
489
487
487
487
486
486
486
485
485
484
484
484
483
479
478
478
476
475
474
473
473
472
471
471
469
467
466
464
462
462
462
462
462
461
461
461
460
459
459
458
457
457
456
456
455
454
454
453
453
453
453
453
452
451
451
450
449
449
449
449
449
448
447
446
446
445
445
444
443
441
441
441
440
438
438
438
437
437
436
435
435
435
434
434
434
434
433
433
432
432
431
431
431
430
430
429
428
428
428
428
428
428
428
427
427
426
425
425
424
424
423
423
423
423
421
420
420
419
418
418
417
417
417
417
417
417
417
416
415
415
414
414
414
411
411
410
410
409
408
408
408
407
406
405
405
404
402
402
402
402
401
401
401
401
401
400
400
398
397
396
396
395
395
394
393
393
393
392
391
390
389
388
388
387
387
387
385
385
384
384
383
382
382
381
380
380
379
379
378
378
377
377
377
375
374
374
373
373
373
373
371
371
371
370
370
370
370
369
369
366
364
363
360
360
359
359
358
357
357
357
355
355
355
355
353
352
352
351
349
349
349
348
347
347
345
344
344
344
342
341
341
341
340
339
338
337
337
335
335
334
334
334
334
333
333
333
332
332
332
331
331
329
329
328
327
327
325
324
324
323
323
322
322
322
320
319
319
319
319
318
317
315
315
314
314
313
313
313
312
311
310
310
309
308
307
306
305
305
304
303
300
296
296
295
294
293
292
291
290
290
289
288
285
285
284
283
283
282
282
279
279
278
278
276
275
275
275
275
273
271
271
270
270
270
270
269
269
268
268
267
267
266
265
265
263
263
263
262
262
262
261
259
259
258
258
258
256
256
256
255
254
254
253
253
253
251
251
250
249
247
245
244
243
241
238
238
238
237
236
236
235
235
234
232
231
231
231
229
229
229
228
227
227
227
226
225
224
224
224
224
222
222
222
221
219
218
218
218
218
217
215
214
214
213
212
211
211
210
210
210
208
208
207
206
206
205
205
205
204
204
203
203
203
201
201
200
200
200
198
196
196
196
196
196
195
195
194
194
192
191
190
189
189
188
188
186
186
185
184
184
184
184
183
183
182
181
180
180
179
179
176
175
175
174
173
173
172
172
172
172
171
170
170
169
169
168
168
168
168
